p cnf 16 15
-1 15 0 
-2 12 -3 15 0 
-4 7 15 0 
-5 -6 15 0 
-7 4 15 0 
-8 15 0 
-1 -3 -7 4 -9 15 0 
-10 -1 -11 -9 15 0 
-7 4 16 0 
-12 2 -3 -10 -13 -7 4 15 0 
-6 -14 15 0 
-4 7 -5 -6 15 0 
-6 15 0 
-7 4 -3 15 0 
-4 7 -6 15 0 
